NAME : XML100_2334_01
DIMENSION : 101
NB_CLUSTERS : 5
CLUSTERING_ALG : KMedoids
CLUSTERING_PARAMS : k(4)
CLUSTERS
1 0
2 5 7 18 22 23 24 33 40 45 46 51 58 75 83
3 2 3 12 13 14 19 25 27 28 30 47 54 57 59 67 71 74 77 79 84 88 91 95 98
4 1 4 10 11 20 32 34 35 37 39 48 49 55 61 62 63 64 65 66 70 72 80 87 89 96
5 6 8 9 15 16 17 21 26 29 31 36 38 41 42 43 44 50 52 53 56 60 68 69 73 76 78 81 82 85 86 90 92 93 94 97 99 100
EOF